c This file is generated by v2cnfMtr
c Generated on Wed Sep 23 17:53:47 2015
p cnf 551 1738
-1 -2 -78 0
1 2 -78 0
1 -2 78 0
-1 2 78 0
-3 -4 -79 0
3 4 -79 0
3 -4 79 0
-3 4 79 0
-5 -6 -80 0
5 6 -80 0
5 -6 80 0
-5 6 80 0
-7 -8 -81 0
7 8 -81 0
7 -8 81 0
-7 8 81 0
-9 -10 -82 0
9 10 -82 0
9 -10 82 0
-9 10 82 0
-11 -12 -83 0
11 12 -83 0
11 -12 83 0
-11 12 83 0
-13 -14 -84 0
13 14 -84 0
13 -14 84 0
-13 14 84 0
-15 -16 -85 0
15 16 -85 0
15 -16 85 0
-15 16 85 0
-17 -18 -86 0
17 18 -86 0
17 -18 86 0
-17 18 86 0
-19 -20 -87 0
19 20 -87 0
19 -20 87 0
-19 20 87 0
-21 -22 -88 0
21 22 -88 0
21 -22 88 0
-21 22 88 0
-23 -24 -89 0
23 24 -89 0
23 -24 89 0
-23 24 89 0
-25 -26 -90 0
25 26 -90 0
25 -26 90 0
-25 26 90 0
-27 -28 -91 0
27 28 -91 0
27 -28 91 0
-27 28 91 0
-29 -30 -92 0
29 30 -92 0
29 -30 92 0
-29 30 92 0
-31 -32 -93 0
31 32 -93 0
31 -32 93 0
-31 32 93 0
-33 -41 94 0
33 -94 0
41 -94 0
-34 -41 95 0
34 -95 0
41 -95 0
-35 -41 96 0
35 -96 0
41 -96 0
-36 -41 97 0
36 -97 0
41 -97 0
-37 -41 98 0
37 -98 0
41 -98 0
-38 -41 99 0
38 -99 0
41 -99 0
-39 -41 100 0
39 -100 0
41 -100 0
-40 -41 101 0
40 -101 0
41 -101 0
-1 -5 -102 0
1 5 -102 0
1 -5 102 0
-1 5 102 0
-9 -13 -103 0
9 13 -103 0
9 -13 103 0
-9 13 103 0
-2 -6 -104 0
2 6 -104 0
2 -6 104 0
-2 6 104 0
-10 -14 -105 0
10 14 -105 0
10 -14 105 0
-10 14 105 0
-3 -7 -106 0
3 7 -106 0
3 -7 106 0
-3 7 106 0
-11 -15 -107 0
11 15 -107 0
11 -15 107 0
-11 15 107 0
-4 -8 -108 0
4 8 -108 0
4 -8 108 0
-4 8 108 0
-12 -16 -109 0
12 16 -109 0
12 -16 109 0
-12 16 109 0
-17 -21 -110 0
17 21 -110 0
17 -21 110 0
-17 21 110 0
-25 -29 -111 0
25 29 -111 0
25 -29 111 0
-25 29 111 0
-18 -22 -112 0
18 22 -112 0
18 -22 112 0
-18 22 112 0
-26 -30 -113 0
26 30 -113 0
26 -30 113 0
-26 30 113 0
-19 -23 -114 0
19 23 -114 0
19 -23 114 0
-19 23 114 0
-27 -31 -115 0
27 31 -115 0
27 -31 115 0
-27 31 115 0
-20 -24 -116 0
20 24 -116 0
20 -24 116 0
-20 24 116 0
-28 -32 -117 0
28 32 -117 0
28 -32 117 0
-28 32 117 0
-78 -79 -118 0
78 79 -118 0
78 -79 118 0
-78 79 118 0
-80 -81 -119 0
80 81 -119 0
80 -81 119 0
-80 81 119 0
-82 -83 -120 0
82 83 -120 0
82 -83 120 0
-82 83 120 0
-84 -85 -121 0
84 85 -121 0
84 -85 121 0
-84 85 121 0
-86 -87 -122 0
86 87 -122 0
86 -87 122 0
-86 87 122 0
-88 -89 -123 0
88 89 -123 0
88 -89 123 0
-88 89 123 0
-90 -91 -124 0
90 91 -124 0
90 -91 124 0
-90 91 124 0
-92 -93 -125 0
92 93 -125 0
92 -93 125 0
-92 93 125 0
-102 -103 -126 0
102 103 -126 0
102 -103 126 0
-102 103 126 0
-104 -105 -127 0
104 105 -127 0
104 -105 127 0
-104 105 127 0
-106 -107 -128 0
106 107 -128 0
106 -107 128 0
-106 107 128 0
-108 -109 -129 0
108 109 -129 0
108 -109 129 0
-108 109 129 0
-110 -111 -130 0
110 111 -130 0
110 -111 130 0
-110 111 130 0
-112 -113 -131 0
112 113 -131 0
112 -113 131 0
-112 113 131 0
-114 -115 -132 0
114 115 -132 0
114 -115 132 0
-114 115 132 0
116 248 0
-116 -248 0
117 249 0
-117 -249 0
-248 -42 250 0
248 -250 0
42 -250 0
-249 -250 251 0
249 -251 0
250 -251 0
-116 -43 252 0
116 -252 0
43 -252 0
-249 -252 253 0
249 -253 0
252 -253 0
-248 -44 254 0
248 -254 0
44 -254 0
-117 -254 255 0
117 -255 0
254 -255 0
-116 -45 256 0
116 -256 0
45 -256 0
-117 -256 257 0
117 -257 0
256 -257 0
251 253 -258 0
-251 258 0
-253 258 0
255 258 -259 0
-255 259 0
-258 259 0
257 259 -133 0
-257 133 0
-259 133 0
-118 -119 -134 0
118 119 -134 0
118 -119 134 0
-118 119 134 0
-120 -121 -135 0
120 121 -135 0
120 -121 135 0
-120 121 135 0
-118 -120 -136 0
118 120 -136 0
118 -120 136 0
-118 120 136 0
-119 -121 -137 0
119 121 -137 0
119 -121 137 0
-119 121 137 0
-122 -123 -138 0
122 123 -138 0
122 -123 138 0
-122 123 138 0
-124 -125 -139 0
124 125 -139 0
124 -125 139 0
-124 125 139 0
-122 -124 -140 0
122 124 -140 0
122 -124 140 0
-122 124 140 0
-123 -125 -141 0
123 125 -141 0
123 -125 141 0
-123 125 141 0
-94 -138 -142 0
94 138 -142 0
94 -138 142 0
-94 138 142 0
-95 -139 -143 0
95 139 -143 0
95 -139 143 0
-95 139 143 0
-96 -140 -144 0
96 140 -144 0
96 -140 144 0
-96 140 144 0
-97 -141 -145 0
97 141 -145 0
97 -141 145 0
-97 141 145 0
-98 -134 -146 0
98 134 -146 0
98 -134 146 0
-98 134 146 0
-99 -135 -147 0
99 135 -147 0
99 -135 147 0
-99 135 147 0
-100 -136 -148 0
100 136 -148 0
100 -136 148 0
-100 136 148 0
-101 -137 -149 0
101 137 -149 0
101 -137 149 0
-101 137 149 0
-126 -142 -150 0
126 142 -150 0
126 -142 150 0
-126 142 150 0
-127 -143 -151 0
127 143 -151 0
127 -143 151 0
-127 143 151 0
-128 -144 -152 0
128 144 -152 0
128 -144 152 0
-128 144 152 0
-129 -145 -153 0
129 145 -153 0
129 -145 153 0
-129 145 153 0
-130 -146 -154 0
130 146 -154 0
130 -146 154 0
-130 146 154 0
-131 -147 -155 0
131 147 -155 0
131 -147 155 0
-131 147 155 0
-132 -148 -156 0
132 148 -156 0
132 -148 156 0
-132 148 156 0
-133 -149 -157 0
133 149 -157 0
133 -149 157 0
-133 149 157 0
150 158 0
-150 -158 0
151 159 0
-151 -159 0
152 160 0
-152 -160 0
150 161 0
-150 -161 0
151 162 0
-151 -162 0
153 163 0
-153 -163 0
150 164 0
-150 -164 0
152 165 0
-152 -165 0
153 166 0
-153 -166 0
151 167 0
-151 -167 0
152 168 0
-152 -168 0
153 169 0
-153 -169 0
155 170 0
-155 -170 0
157 171 0
-157 -171 0
155 172 0
-155 -172 0
156 173 0
-156 -173 0
154 174 0
-154 -174 0
157 175 0
-157 -175 0
154 176 0
-154 -176 0
156 177 0
-156 -177 0
154 178 0
-154 -178 0
155 179 0
-155 -179 0
156 180 0
-156 -180 0
154 181 0
-154 -181 0
155 182 0
-155 -182 0
157 183 0
-157 -183 0
154 184 0
-154 -184 0
156 185 0
-156 -185 0
157 186 0
-157 -186 0
155 187 0
-155 -187 0
156 188 0
-156 -188 0
157 189 0
-157 -189 0
151 190 0
-151 -190 0
153 191 0
-153 -191 0
151 192 0
-151 -192 0
152 193 0
-152 -193 0
150 194 0
-150 -194 0
153 195 0
-153 -195 0
150 196 0
-150 -196 0
152 197 0
-152 -197 0
-158 -159 -160 -153 198 0
158 -198 0
159 -198 0
160 -198 0
153 -198 0
-161 -162 -152 -163 199 0
161 -199 0
162 -199 0
152 -199 0
163 -199 0
-164 -151 -165 -166 200 0
164 -200 0
151 -200 0
165 -200 0
166 -200 0
-150 -167 -168 -169 201 0
150 -201 0
167 -201 0
168 -201 0
169 -201 0
-178 -179 -180 -157 202 0
178 -202 0
179 -202 0
180 -202 0
157 -202 0
-181 -182 -156 -183 203 0
181 -203 0
182 -203 0
156 -203 0
183 -203 0
-184 -155 -185 -186 204 0
184 -204 0
155 -204 0
185 -204 0
186 -204 0
-154 -187 -188 -189 205 0
154 -205 0
187 -205 0
188 -205 0
189 -205 0
198 199 200 201 -206 0
-198 206 0
-199 206 0
-200 206 0
-201 206 0
202 203 204 205 -207 0
-202 207 0
-203 207 0
-204 207 0
-205 207 0
-154 -170 -156 -171 -206 208 0
154 -208 0
170 -208 0
156 -208 0
171 -208 0
206 -208 0
-154 -172 -173 -157 -206 209 0
154 -209 0
172 -209 0
173 -209 0
157 -209 0
206 -209 0
-174 -155 -156 -175 -206 210 0
174 -210 0
155 -210 0
156 -210 0
175 -210 0
206 -210 0
-176 -155 -177 -157 -206 211 0
176 -211 0
155 -211 0
177 -211 0
157 -211 0
206 -211 0
-150 -190 -152 -191 -207 212 0
150 -212 0
190 -212 0
152 -212 0
191 -212 0
207 -212 0
-150 -192 -193 -153 -207 213 0
150 -213 0
192 -213 0
193 -213 0
153 -213 0
207 -213 0
-194 -151 -152 -195 -207 214 0
194 -214 0
151 -214 0
152 -214 0
195 -214 0
207 -214 0
-196 -151 -197 -153 -207 215 0
196 -215 0
151 -215 0
197 -215 0
153 -215 0
207 -215 0
-150 -208 216 0
150 -216 0
208 -216 0
-151 -208 217 0
151 -217 0
208 -217 0
-152 -208 218 0
152 -218 0
208 -218 0
-153 -208 219 0
153 -219 0
208 -219 0
-150 -209 220 0
150 -220 0
209 -220 0
-151 -209 221 0
151 -221 0
209 -221 0
-152 -209 222 0
152 -222 0
209 -222 0
-153 -209 223 0
153 -223 0
209 -223 0
-150 -210 224 0
150 -224 0
210 -224 0
-151 -210 225 0
151 -225 0
210 -225 0
-152 -210 226 0
152 -226 0
210 -226 0
-153 -210 227 0
153 -227 0
210 -227 0
-150 -211 228 0
150 -228 0
211 -228 0
-151 -211 229 0
151 -229 0
211 -229 0
-152 -211 230 0
152 -230 0
211 -230 0
-153 -211 231 0
153 -231 0
211 -231 0
-154 -212 232 0
154 -232 0
212 -232 0
-155 -212 233 0
155 -233 0
212 -233 0
-156 -212 234 0
156 -234 0
212 -234 0
-157 -212 235 0
157 -235 0
212 -235 0
-154 -213 236 0
154 -236 0
213 -236 0
-155 -213 237 0
155 -237 0
213 -237 0
-156 -213 238 0
156 -238 0
213 -238 0
-157 -213 239 0
157 -239 0
213 -239 0
-154 -214 240 0
154 -240 0
214 -240 0
-155 -214 241 0
155 -241 0
214 -241 0
-156 -214 242 0
156 -242 0
214 -242 0
-157 -214 243 0
157 -243 0
214 -243 0
-154 -215 244 0
154 -244 0
215 -244 0
-155 -215 245 0
155 -245 0
215 -245 0
-156 -215 246 0
156 -246 0
215 -246 0
-157 -215 247 0
157 -247 0
215 -247 0
-1 -216 -46 0
1 216 -46 0
1 -216 46 0
-1 216 46 0
-2 -217 -47 0
2 217 -47 0
2 -217 47 0
-2 217 47 0
-3 -218 -48 0
3 218 -48 0
3 -218 48 0
-3 218 48 0
-4 -219 -49 0
4 219 -49 0
4 -219 49 0
-4 219 49 0
-5 -220 -50 0
5 220 -50 0
5 -220 50 0
-5 220 50 0
-6 -221 -51 0
6 221 -51 0
6 -221 51 0
-6 221 51 0
-7 -222 -52 0
7 222 -52 0
7 -222 52 0
-7 222 52 0
-8 -223 -53 0
8 223 -53 0
8 -223 53 0
-8 223 53 0
-9 -224 -54 0
9 224 -54 0
9 -224 54 0
-9 224 54 0
-10 -225 -55 0
10 225 -55 0
10 -225 55 0
-10 225 55 0
-11 -226 -56 0
11 226 -56 0
11 -226 56 0
-11 226 56 0
-12 -227 -57 0
12 227 -57 0
12 -227 57 0
-12 227 57 0
-13 -228 -58 0
13 228 -58 0
13 -228 58 0
-13 228 58 0
-14 -229 -59 0
14 229 -59 0
14 -229 59 0
-14 229 59 0
-15 -230 -60 0
15 230 -60 0
15 -230 60 0
-15 230 60 0
-16 -231 -61 0
16 231 -61 0
16 -231 61 0
-16 231 61 0
-17 -232 -62 0
17 232 -62 0
17 -232 62 0
-17 232 62 0
-18 -233 -63 0
18 233 -63 0
18 -233 63 0
-18 233 63 0
-19 -234 -64 0
19 234 -64 0
19 -234 64 0
-19 234 64 0
-20 -235 -65 0
20 235 -65 0
20 -235 65 0
-20 235 65 0
-21 -236 -66 0
21 236 -66 0
21 -236 66 0
-21 236 66 0
-22 -237 -67 0
22 237 -67 0
22 -237 67 0
-22 237 67 0
-23 -238 -68 0
23 238 -68 0
23 -238 68 0
-23 238 68 0
-24 -239 -69 0
24 239 -69 0
24 -239 69 0
-24 239 69 0
-25 -240 -70 0
25 240 -70 0
25 -240 70 0
-25 240 70 0
-26 -241 -71 0
26 241 -71 0
26 -241 71 0
-26 241 71 0
-27 -242 -72 0
27 242 -72 0
27 -242 72 0
-27 242 72 0
-28 -243 -73 0
28 243 -73 0
28 -243 73 0
-28 243 73 0
-29 -244 -74 0
29 244 -74 0
29 -244 74 0
-29 244 74 0
-30 -245 -75 0
30 245 -75 0
30 -245 75 0
-30 245 75 0
-31 -246 -76 0
31 246 -76 0
31 -246 76 0
-31 246 76 0
-32 -247 -77 0
32 247 -77 0
32 -247 77 0
-32 247 77 0
c The second circuit:
-260 -261 -337 0
260 261 -337 0
260 -261 337 0
-260 261 337 0
-262 -263 -338 0
262 263 -338 0
262 -263 338 0
-262 263 338 0
-264 -265 -339 0
264 265 -339 0
264 -265 339 0
-264 265 339 0
-266 -267 -340 0
266 267 -340 0
266 -267 340 0
-266 267 340 0
-268 -269 -341 0
268 269 -341 0
268 -269 341 0
-268 269 341 0
-270 -271 -342 0
270 271 -342 0
270 -271 342 0
-270 271 342 0
-272 -273 -343 0
272 273 -343 0
272 -273 343 0
-272 273 343 0
-274 -275 -344 0
274 275 -344 0
274 -275 344 0
-274 275 344 0
-276 -277 -345 0
276 277 -345 0
276 -277 345 0
-276 277 345 0
-278 -279 -346 0
278 279 -346 0
278 -279 346 0
-278 279 346 0
-280 -281 -347 0
280 281 -347 0
280 -281 347 0
-280 281 347 0
-282 -283 -348 0
282 283 -348 0
282 -283 348 0
-282 283 348 0
-284 -285 -349 0
284 285 -349 0
284 -285 349 0
-284 285 349 0
-286 -287 -350 0
286 287 -350 0
286 -287 350 0
-286 287 350 0
-288 -289 -351 0
288 289 -351 0
288 -289 351 0
-288 289 351 0
-290 -291 -352 0
290 291 -352 0
290 -291 352 0
-290 291 352 0
-292 -300 353 0
292 -353 0
300 -353 0
-293 -300 354 0
293 -354 0
300 -354 0
-294 -300 355 0
294 -355 0
300 -355 0
-295 -300 356 0
295 -356 0
300 -356 0
-296 -300 357 0
296 -357 0
300 -357 0
-297 -300 358 0
297 -358 0
300 -358 0
-298 -300 359 0
298 -359 0
300 -359 0
-299 -300 360 0
299 -360 0
300 -360 0
-260 -264 -361 0
260 264 -361 0
260 -264 361 0
-260 264 361 0
-268 -272 -362 0
268 272 -362 0
268 -272 362 0
-268 272 362 0
-261 -265 -363 0
261 265 -363 0
261 -265 363 0
-261 265 363 0
-269 -273 -364 0
269 273 -364 0
269 -273 364 0
-269 273 364 0
-262 -266 -365 0
262 266 -365 0
262 -266 365 0
-262 266 365 0
-270 -274 -366 0
270 274 -366 0
270 -274 366 0
-270 274 366 0
-263 -267 -367 0
263 267 -367 0
263 -267 367 0
-263 267 367 0
-271 -275 -368 0
271 275 -368 0
271 -275 368 0
-271 275 368 0
-276 -280 -369 0
276 280 -369 0
276 -280 369 0
-276 280 369 0
-284 -288 -370 0
284 288 -370 0
284 -288 370 0
-284 288 370 0
-277 -281 -371 0
277 281 -371 0
277 -281 371 0
-277 281 371 0
-285 -289 -372 0
285 289 -372 0
285 -289 372 0
-285 289 372 0
-278 -282 -373 0
278 282 -373 0
278 -282 373 0
-278 282 373 0
-286 -290 -374 0
286 290 -374 0
286 -290 374 0
-286 290 374 0
-279 -283 -375 0
279 283 -375 0
279 -283 375 0
-279 283 375 0
-287 -291 -376 0
287 291 -376 0
287 -291 376 0
-287 291 376 0
-337 -338 -377 0
337 338 -377 0
337 -338 377 0
-337 338 377 0
-339 -340 -378 0
339 340 -378 0
339 -340 378 0
-339 340 378 0
-341 -342 -379 0
341 342 -379 0
341 -342 379 0
-341 342 379 0
-343 -344 -380 0
343 344 -380 0
343 -344 380 0
-343 344 380 0
-345 -346 -381 0
345 346 -381 0
345 -346 381 0
-345 346 381 0
-347 -348 -382 0
347 348 -382 0
347 -348 382 0
-347 348 382 0
-349 -350 -383 0
349 350 -383 0
349 -350 383 0
-349 350 383 0
-351 -352 -384 0
351 352 -384 0
351 -352 384 0
-351 352 384 0
-361 -362 -385 0
361 362 -385 0
361 -362 385 0
-361 362 385 0
-363 -364 -386 0
363 364 -386 0
363 -364 386 0
-363 364 386 0
-365 -366 -387 0
365 366 -387 0
365 -366 387 0
-365 366 387 0
-367 -368 -388 0
367 368 -388 0
367 -368 388 0
-367 368 388 0
-369 -370 -389 0
369 370 -389 0
369 -370 389 0
-369 370 389 0
-371 -372 -390 0
371 372 -390 0
371 -372 390 0
-371 372 390 0
-373 -374 -391 0
373 374 -391 0
373 -374 391 0
-373 374 391 0
375 507 0
-375 -507 0
376 508 0
-376 -508 0
-507 -301 509 0
507 -509 0
301 -509 0
-508 -509 510 0
508 -510 0
509 -510 0
-375 -302 511 0
375 -511 0
302 -511 0
-508 -511 512 0
508 -512 0
511 -512 0
-507 -303 513 0
507 -513 0
303 -513 0
-376 -513 514 0
376 -514 0
513 -514 0
-375 -304 515 0
375 -515 0
304 -515 0
-376 -515 516 0
376 -516 0
515 -516 0
510 512 -517 0
-510 517 0
-512 517 0
514 517 -518 0
-514 518 0
-517 518 0
516 518 -392 0
-516 392 0
-518 392 0
-377 -378 -393 0
377 378 -393 0
377 -378 393 0
-377 378 393 0
-379 -380 -394 0
379 380 -394 0
379 -380 394 0
-379 380 394 0
-377 -379 -395 0
377 379 -395 0
377 -379 395 0
-377 379 395 0
-378 -380 -396 0
378 380 -396 0
378 -380 396 0
-378 380 396 0
-381 -382 -397 0
381 382 -397 0
381 -382 397 0
-381 382 397 0
-383 -384 -398 0
383 384 -398 0
383 -384 398 0
-383 384 398 0
-381 -383 -399 0
381 383 -399 0
381 -383 399 0
-381 383 399 0
-382 -384 -400 0
382 384 -400 0
382 -384 400 0
-382 384 400 0
-353 -397 -401 0
353 397 -401 0
353 -397 401 0
-353 397 401 0
-354 -398 -402 0
354 398 -402 0
354 -398 402 0
-354 398 402 0
-355 -399 -403 0
355 399 -403 0
355 -399 403 0
-355 399 403 0
-356 -400 -404 0
356 400 -404 0
356 -400 404 0
-356 400 404 0
-357 -393 -405 0
357 393 -405 0
357 -393 405 0
-357 393 405 0
-358 -394 -406 0
358 394 -406 0
358 -394 406 0
-358 394 406 0
-359 -395 -407 0
359 395 -407 0
359 -395 407 0
-359 395 407 0
-360 -396 -408 0
360 396 -408 0
360 -396 408 0
-360 396 408 0
-385 -401 -409 0
385 401 -409 0
385 -401 409 0
-385 401 409 0
-386 -402 -410 0
386 402 -410 0
386 -402 410 0
-386 402 410 0
-387 -403 -411 0
387 403 -411 0
387 -403 411 0
-387 403 411 0
-388 -404 -412 0
388 404 -412 0
388 -404 412 0
-388 404 412 0
-389 -405 -413 0
389 405 -413 0
389 -405 413 0
-389 405 413 0
-390 -406 -414 0
390 406 -414 0
390 -406 414 0
-390 406 414 0
-391 -407 -415 0
391 407 -415 0
391 -407 415 0
-391 407 415 0
-392 -408 -416 0
392 408 -416 0
392 -408 416 0
-392 408 416 0
409 417 0
-409 -417 0
410 418 0
-410 -418 0
411 419 0
-411 -419 0
409 420 0
-409 -420 0
410 421 0
-410 -421 0
412 422 0
-412 -422 0
409 423 0
-409 -423 0
411 424 0
-411 -424 0
412 425 0
-412 -425 0
410 426 0
-410 -426 0
411 427 0
-411 -427 0
412 428 0
-412 -428 0
414 429 0
-414 -429 0
416 430 0
-416 -430 0
414 431 0
-414 -431 0
415 432 0
-415 -432 0
413 433 0
-413 -433 0
416 434 0
-416 -434 0
413 435 0
-413 -435 0
415 436 0
-415 -436 0
413 437 0
-413 -437 0
414 438 0
-414 -438 0
415 439 0
-415 -439 0
413 440 0
-413 -440 0
414 441 0
-414 -441 0
416 442 0
-416 -442 0
413 443 0
-413 -443 0
415 444 0
-415 -444 0
416 445 0
-416 -445 0
414 446 0
-414 -446 0
415 447 0
-415 -447 0
416 448 0
-416 -448 0
410 449 0
-410 -449 0
412 450 0
-412 -450 0
410 451 0
-410 -451 0
411 452 0
-411 -452 0
409 453 0
-409 -453 0
412 454 0
-412 -454 0
409 455 0
-409 -455 0
411 456 0
-411 -456 0
-417 -418 -419 -412 457 0
417 -457 0
418 -457 0
419 -457 0
412 -457 0
-420 -421 -411 -422 458 0
420 -458 0
421 -458 0
411 -458 0
422 -458 0
-423 -410 -424 -425 459 0
423 -459 0
410 -459 0
424 -459 0
425 -459 0
-409 -426 -427 -428 460 0
409 -460 0
426 -460 0
427 -460 0
428 -460 0
-437 -438 -439 -416 461 0
437 -461 0
438 -461 0
439 -461 0
416 -461 0
-440 -441 -415 -442 462 0
440 -462 0
441 -462 0
415 -462 0
442 -462 0
-443 -414 -444 -445 463 0
443 -463 0
414 -463 0
444 -463 0
445 -463 0
-413 -446 -447 -448 464 0
413 -464 0
446 -464 0
447 -464 0
448 -464 0
457 458 459 460 -465 0
-457 465 0
-458 465 0
-459 465 0
-460 465 0
461 462 463 464 -466 0
-461 466 0
-462 466 0
-463 466 0
-464 466 0
-413 -429 -415 -430 -465 467 0
413 -467 0
429 -467 0
415 -467 0
430 -467 0
465 -467 0
-413 -431 -432 -416 -465 468 0
413 -468 0
431 -468 0
432 -468 0
416 -468 0
465 -468 0
-433 -414 -415 -434 -465 469 0
433 -469 0
414 -469 0
415 -469 0
434 -469 0
465 -469 0
-435 -414 -436 -416 -465 470 0
435 -470 0
414 -470 0
436 -470 0
416 -470 0
465 -470 0
-409 -449 -411 -450 -466 471 0
409 -471 0
449 -471 0
411 -471 0
450 -471 0
466 -471 0
-409 -451 -452 -412 -466 472 0
409 -472 0
451 -472 0
452 -472 0
412 -472 0
466 -472 0
-453 -410 -411 -454 -466 473 0
453 -473 0
410 -473 0
411 -473 0
454 -473 0
466 -473 0
-455 -410 -456 -412 -466 474 0
455 -474 0
410 -474 0
456 -474 0
412 -474 0
466 -474 0
-409 -467 475 0
409 -475 0
467 -475 0
-410 -467 476 0
410 -476 0
467 -476 0
-411 -467 477 0
411 -477 0
467 -477 0
-412 -467 478 0
412 -478 0
467 -478 0
-409 -468 479 0
409 -479 0
468 -479 0
-410 -468 480 0
410 -480 0
468 -480 0
-411 -468 481 0
411 -481 0
468 -481 0
-412 -468 482 0
412 -482 0
468 -482 0
-409 -469 483 0
409 -483 0
469 -483 0
-410 -469 484 0
410 -484 0
469 -484 0
-411 -469 485 0
411 -485 0
469 -485 0
-412 -469 486 0
412 -486 0
469 -486 0
-409 -470 487 0
409 -487 0
470 -487 0
-410 -470 488 0
410 -488 0
470 -488 0
-411 -470 489 0
411 -489 0
470 -489 0
-412 -470 490 0
412 -490 0
470 -490 0
-413 -471 491 0
413 -491 0
471 -491 0
-414 -471 492 0
414 -492 0
471 -492 0
-415 -471 493 0
415 -493 0
471 -493 0
-416 -471 494 0
416 -494 0
471 -494 0
-413 -472 495 0
413 -495 0
472 -495 0
-414 -472 496 0
414 -496 0
472 -496 0
-415 -472 497 0
415 -497 0
472 -497 0
-416 -472 498 0
416 -498 0
472 -498 0
-413 -473 499 0
413 -499 0
473 -499 0
-414 -473 500 0
414 -500 0
473 -500 0
-415 -473 501 0
415 -501 0
473 -501 0
-416 -473 502 0
416 -502 0
473 -502 0
-413 -474 503 0
413 -503 0
474 -503 0
-414 -474 504 0
414 -504 0
474 -504 0
-415 -474 505 0
415 -505 0
474 -505 0
-416 -474 506 0
416 -506 0
474 -506 0
-260 -475 -305 0
260 475 -305 0
260 -475 305 0
-260 475 305 0
-261 -476 -306 0
261 476 -306 0
261 -476 306 0
-261 476 306 0
-262 -477 -307 0
262 477 -307 0
262 -477 307 0
-262 477 307 0
-263 -478 -308 0
263 478 -308 0
263 -478 308 0
-263 478 308 0
-264 -479 -309 0
264 479 -309 0
264 -479 309 0
-264 479 309 0
-265 -480 -310 0
265 480 -310 0
265 -480 310 0
-265 480 310 0
-266 -481 -311 0
266 481 -311 0
266 -481 311 0
-266 481 311 0
-267 -482 -312 0
267 482 -312 0
267 -482 312 0
-267 482 312 0
-268 -483 -313 0
268 483 -313 0
268 -483 313 0
-268 483 313 0
-269 -484 -314 0
269 484 -314 0
269 -484 314 0
-269 484 314 0
-270 -485 -315 0
270 485 -315 0
270 -485 315 0
-270 485 315 0
-271 -486 -316 0
271 486 -316 0
271 -486 316 0
-271 486 316 0
-272 -487 -317 0
272 487 -317 0
272 -487 317 0
-272 487 317 0
-273 -488 -318 0
273 488 -318 0
273 -488 318 0
-273 488 318 0
-274 -489 -319 0
274 489 -319 0
274 -489 319 0
-274 489 319 0
-275 -490 -320 0
275 490 -320 0
275 -490 320 0
-275 490 320 0
-276 -491 -321 0
276 491 -321 0
276 -491 321 0
-276 491 321 0
-277 -492 -322 0
277 492 -322 0
277 -492 322 0
-277 492 322 0
-278 -493 -323 0
278 493 -323 0
278 -493 323 0
-278 493 323 0
-279 -494 -324 0
279 494 -324 0
279 -494 324 0
-279 494 324 0
-280 -495 -325 0
280 495 -325 0
280 -495 325 0
-280 495 325 0
-281 -496 -326 0
281 496 -326 0
281 -496 326 0
-281 496 326 0
-282 -497 -327 0
282 497 -327 0
282 -497 327 0
-282 497 327 0
-283 -498 -328 0
283 498 -328 0
283 -498 328 0
-283 498 328 0
-284 -499 -329 0
284 499 -329 0
284 -499 329 0
-284 499 329 0
-285 -500 -330 0
285 500 -330 0
285 -500 330 0
-285 500 330 0
-286 -501 -331 0
286 501 -331 0
286 -501 331 0
-286 501 331 0
-287 -502 -332 0
287 502 -332 0
287 -502 332 0
-287 502 332 0
-288 -503 -333 0
288 503 -333 0
288 -503 333 0
-288 503 333 0
-289 -504 -334 0
289 504 -334 0
289 -504 334 0
-289 504 334 0
-290 -505 -335 0
290 505 -335 0
290 -505 335 0
-290 505 335 0
-291 -506 -336 0
291 506 -336 0
291 -506 336 0
-291 506 336 0
c Force PIs of 2 ckts to be the same:
1 -260 0
-1 260 0
2 -261 0
-2 261 0
3 -262 0
-3 262 0
4 -263 0
-4 263 0
5 -264 0
-5 264 0
6 -265 0
-6 265 0
7 -266 0
-7 266 0
8 -267 0
-8 267 0
9 -268 0
-9 268 0
10 -269 0
-10 269 0
11 -270 0
-11 270 0
12 -271 0
-12 271 0
13 -272 0
-13 272 0
14 -273 0
-14 273 0
15 -274 0
-15 274 0
16 -275 0
-16 275 0
17 -276 0
-17 276 0
18 -277 0
-18 277 0
19 -278 0
-19 278 0
20 -279 0
-20 279 0
21 -280 0
-21 280 0
22 -281 0
-22 281 0
23 -282 0
-23 282 0
24 -283 0
-24 283 0
25 -284 0
-25 284 0
26 -285 0
-26 285 0
27 -286 0
-27 286 0
28 -287 0
-28 287 0
29 -288 0
-29 288 0
30 -289 0
-30 289 0
31 -290 0
-31 290 0
32 -291 0
-32 291 0
33 -292 0
-33 292 0
34 -293 0
-34 293 0
35 -294 0
-35 294 0
36 -295 0
-36 295 0
37 -296 0
-37 296 0
38 -297 0
-38 297 0
39 -298 0
-39 298 0
40 -299 0
-40 299 0
41 -300 0
-41 300 0
c XOR outputs of 2 ckts:
-46 -305 -519 0
46 305 -519 0
46 -305 519 0
-46 305 519 0
-47 -306 -520 0
47 306 -520 0
47 -306 520 0
-47 306 520 0
-48 -307 -521 0
48 307 -521 0
48 -307 521 0
-48 307 521 0
-49 -308 -522 0
49 308 -522 0
49 -308 522 0
-49 308 522 0
-50 -309 -523 0
50 309 -523 0
50 -309 523 0
-50 309 523 0
-51 -310 -524 0
51 310 -524 0
51 -310 524 0
-51 310 524 0
-52 -311 -525 0
52 311 -525 0
52 -311 525 0
-52 311 525 0
-53 -312 -526 0
53 312 -526 0
53 -312 526 0
-53 312 526 0
-54 -313 -527 0
54 313 -527 0
54 -313 527 0
-54 313 527 0
-55 -314 -528 0
55 314 -528 0
55 -314 528 0
-55 314 528 0
-56 -315 -529 0
56 315 -529 0
56 -315 529 0
-56 315 529 0
-57 -316 -530 0
57 316 -530 0
57 -316 530 0
-57 316 530 0
-58 -317 -531 0
58 317 -531 0
58 -317 531 0
-58 317 531 0
-59 -318 -532 0
59 318 -532 0
59 -318 532 0
-59 318 532 0
-60 -319 -533 0
60 319 -533 0
60 -319 533 0
-60 319 533 0
-61 -320 -534 0
61 320 -534 0
61 -320 534 0
-61 320 534 0
-62 -321 -535 0
62 321 -535 0
62 -321 535 0
-62 321 535 0
-63 -322 -536 0
63 322 -536 0
63 -322 536 0
-63 322 536 0
-64 -323 -537 0
64 323 -537 0
64 -323 537 0
-64 323 537 0
-65 -324 -538 0
65 324 -538 0
65 -324 538 0
-65 324 538 0
-66 -325 -539 0
66 325 -539 0
66 -325 539 0
-66 325 539 0
-67 -326 -540 0
67 326 -540 0
67 -326 540 0
-67 326 540 0
-68 -327 -541 0
68 327 -541 0
68 -327 541 0
-68 327 541 0
-69 -328 -542 0
69 328 -542 0
69 -328 542 0
-69 328 542 0
-70 -329 -543 0
70 329 -543 0
70 -329 543 0
-70 329 543 0
-71 -330 -544 0
71 330 -544 0
71 -330 544 0
-71 330 544 0
-72 -331 -545 0
72 331 -545 0
72 -331 545 0
-72 331 545 0
-73 -332 -546 0
73 332 -546 0
73 -332 546 0
-73 332 546 0
-74 -333 -547 0
74 333 -547 0
74 -333 547 0
-74 333 547 0
-75 -334 -548 0
75 334 -548 0
75 -334 548 0
-75 334 548 0
-76 -335 -549 0
76 335 -549 0
76 -335 549 0
-76 335 549 0
-77 -336 -550 0
77 336 -550 0
77 -336 550 0
-77 336 550 0
c The last OR gate of the miter:
519 520 521 522 523 524 525 526 527 528 529 530 531 532 533 534 535 536 537 538 539 540 541 542 543 544 545 546 547 548 549 550 -551 0
-519 551 0
-520 551 0
-521 551 0
-522 551 0
-523 551 0
-524 551 0
-525 551 0
-526 551 0
-527 551 0
-528 551 0
-529 551 0
-530 551 0
-531 551 0
-532 551 0
-533 551 0
-534 551 0
-535 551 0
-536 551 0
-537 551 0
-538 551 0
-539 551 0
-540 551 0
-541 551 0
-542 551 0
-543 551 0
-544 551 0
-545 551 0
-546 551 0
-547 551 0
-548 551 0
-549 551 0
-550 551 0
551 0
